objective value:                                27583
t_x7                                                1 	(obj:297)
t_x8                                                1 	(obj:248)
t_x19                               0.999999999999999 	(obj:407)
t_x20                                               1 	(obj:911)
t_x22                                               1 	(obj:48)
t_x35                               0.999999999999999 	(obj:543)
t_x37                                               1 	(obj:36)
t_x42                                               1 	(obj:211)
t_x43                                               1 	(obj:265)
t_x46                                               1 	(obj:517)
t_x56                                               1 	(obj:174)
t_x58                                               1 	(obj:41)
t_x59                                               1 	(obj:268)
t_x64                                               1 	(obj:317)
t_x67                                               1 	(obj:42)
t_x73                                               1 	(obj:731)
t_x115                              0.999999999999999 	(obj:270)
t_x127                                              1 	(obj:708)
t_x130                                              1 	(obj:35)
t_x154                                              1 	(obj:539)
t_x194                                              1 	(obj:541)
t_x249                              0.999999999999997 	(obj:250)
t_x359                                              1 	(obj:441)
t_x382                                              1 	(obj:228)
t_x516                              0.999999999999999 	(obj:583)
t_x589                              0.999999999999999 	(obj:421)
t_x671                              0.999999999999999 	(obj:374)
t_x700                              0.999999999999999 	(obj:414)
t_x717                                              1 	(obj:436)
t_x1092                                             1 	(obj:415)
t_x1111                                             1 	(obj:349)
t_x1324                                             1 	(obj:437)
t_x1330                                             1 	(obj:603)
t_x1427                              1.00000000000001 	(obj:248)
t_x1450                                             1 	(obj:309)
t_x1519                                             1 	(obj:911)
t_x1788                                             1 	(obj:432)
t_x1850                             0.999999999999999 	(obj:716)
t_x2031                                             1 	(obj:436)
t_x2042                                             1 	(obj:77)
t_x2163                             0.999999999999999 	(obj:660)
t_x2165                             0.999999999999999 	(obj:182)
t_x2457                                             1 	(obj:281)
t_x2603                                             1 	(obj:1012)
t_x2717                                             1 	(obj:243)
t_x2766                                             1 	(obj:413)
t_x2965                                             1 	(obj:242)
t_x3075                                             1 	(obj:599)
t_x3100                                             1 	(obj:417)
t_x3105                                             1 	(obj:417)
t_x3140                                             1 	(obj:456)
t_x3214                                             1 	(obj:332)
t_x3219                                             1 	(obj:264)
t_x3324                                             1 	(obj:434)
t_x3582                                             1 	(obj:455)
t_x3711                             0.999999999999999 	(obj:363)
t_x4236                                             1 	(obj:503)
t_x4326                                             1 	(obj:481)
t_x4454                                             1 	(obj:445)
t_x4559                                             1 	(obj:372)
t_x4761                                             1 	(obj:631)
t_x4985                                             1 	(obj:423)
t_x5152                                             1 	(obj:400)
t_x5341                             0.999999999999999 	(obj:580)
t_x5419                                             1 	(obj:466)
t_x5436                                             1 	(obj:292)
t_x5544                                             1 	(obj:247)
t_x6474                                             1 	(obj:399)
t_x6583                                             1 	(obj:345)
